40
0 1 0.58 0.2
0 2 0.68 0.19
0 3 0.78 0.28
0 4 0.53 0.31
0 5 0.4 0.08
0 6 0.24 0.14
0 7 0.42 0.22
0 8 0.38 0.22
0 9 0.61 0.32
0 10 0.18 0.16
0 11 0.42 0.22
0 12 0.48 0.18
0 13 0.44 0.2
0 14 0.56 0.26
0 15 0.52 0.2
0 16 0.38 0.1
0 17 0.46 0.26
0 18 0.61 0.18
0 19 0.56 0.25
0 20 0.5 0.24
0 21 0.64 0.3
0 22 0.52 0.25
0 23 0.68 0.27
0 24 0.2 0.16
0 25 0.36 0.21
0 26 0.73 0.25
0 27 0.51 0.15
0 28 0.64 0.12
0 29 0.66 0.24
0 30 0.28 0.16
0 31 0.62 0.16
0 32 0.71 0.3
0 33 0.49 0.23
0 34 0.74 0.24
0 35 0.58 0.26
0 36 0.56 0.2
0 37 0.52 0.27
0 38 0.7 0.2
0 39 0.64 0.24
1 2 0.56 0.21
1 3 0.72 0.23
1 4 0.62 0.27
1 5 0.62 0.28
1 6 0.6 0.14
1 7 0.76 0.18
1 8 0.4 0.12
1 9 0.77 0.18
1 10 0.76 0.35
1 11 0.74 0.19
1 12 0.72 0.15
1 13 0.54 0.16
1 14 0.54 0.23
1 15 0.69 0.32
1 16 0.89 0.22
1 17 0.46 0.06
1 18 0.65 0.21
1 19 0.7 0.22
1 20 0.47 0.27
1 21 0.54 0.25
1 22 0.32 0.2
1 23 0.68 0.23
1 24 0.76 0.23
1 25 0.56 0.18
1 26 0.44 0.22
1 27 0.41 0.17
1 28 0.66 0.29
1 29 0.64 0.2
1 30 0.66 0.32
1 31 0.66 0.13
1 32 0.6 0.3
1 33 0.8 0.19
1 34 0.54 0.26
1 35 0.64 0.06
1 36 0.46 0.03
1 37 0.68 0.22
1 38 0.32 0.22
1 39 0.54 0.27
2 3 0.71 0.22
2 4 0.82 0.21
2 5 0.46 0.22
2 6 0.44 0.13
2 7 0.72 0.12
2 8 0.69 0.24
2 9 0.52 0.23
2 10 0.72 0.3
2 11 0.78 0.2
2 12 0.42 0.27
2 13 0.56 0.14
2 14 0.46 0.16
2 15 0.5 0.18
2 16 0.66 0.21
2 17 0.71 0.22
2 18 0.44 0.15
2 19 0.69 0.14
2 20 0.34 0.14
2 21 0.63 0.2
2 22 0.66 0.15
2 23 0.58 0.16
2 24 0.62 0.15
2 25 0.35 0.1
2 26 0.52 0.14
2 27 0.3 0.04
2 28 0.5 0.26
2 29 0.58 0.18
2 30 0.56 0.24
2 31 0.69 0.26
2 32 0.58 0.29
2 33 0.52 0.17
2 34 0.52 0.13
2 35 0.66 0.23
2 36 0.72 0.18
2 37 0.83 0.24
2 38 0.5 0.09
2 39 0.43 0.14
3 4 0.81 0.25
3 5 0.62 0.36
3 6 0.78 0.34
3 7 0.7 0.16
3 8 0.63 0.28
3 9 0.54 0.28
3 10 0.76 0.35
3 11 0.4 0.2
3 12 0.76 0.26
3 13 0.67 0.18
3 14 0.74 0.16
3 15 0.64 0.38
3 16 0.74 0.28
3 17 0.76 0.29
3 18 0.75 0.26
3 19 0.58 0.24
3 20 0.64 0.28
3 21 0.48 0.02
3 22 0.67 0.18
3 23 0.46 0.27
3 24 0.85 0.24
3 25 0.56 0.2
3 26 0.54 0.18
3 27 0.41 0.18
3 28 0.5 0.16
3 29 0.69 0.18
3 30 0.86 0.3
3 31 0.34 0.24
3 32 0.66 0.32
3 33 0.6 0.21
3 34 0.58 0.27
3 35 0.58 0.28
3 36 0.4 0.26
3 37 0.62 0.28
3 38 0.52 0.23
3 39 0.28 0.16
4 5 0.81 0.35
4 6 0.77 0.29
4 7 0.22 0.09
4 8 0.62 0.21
4 9 0.42 0.32
4 10 0.62 0.32
4 11 0.74 0.16
4 12 0.8 0.24
4 13 0.72 0.11
4 14 0.72 0.2
4 15 0.54 0.17
4 16 0.48 0.21
4 17 0.61 0.23
4 18 0.67 0.26
4 19 0.6 0.18
4 20 0.48 0.3
4 21 0.44 0.23
4 22 0.73 0.27
4 23 0.67 0.1
4 24 0.64 0.19
4 25 0.59 0.14
4 26 0.55 0.18
4 27 0.6 0.2
4 28 0.61 0.24
4 29 0.38 0.15
4 30 0.54 0.28
4 31 0.77 0.22
4 32 0.66 0.2
4 33 0.39 0.09
4 34 0.46 0.29
4 35 0.78 0.21
4 36 0.94 0.26
4 37 0.58 0.18
4 38 0.68 0.25
4 39 0.73 0.22
5 6 0.64 0.22
5 7 0.67 0.26
5 8 0.69 0.26
5 9 0.68 0.37
5 10 0.58 0.24
5 11 0.75 0.29
5 12 0.68 0.26
5 13 0.47 0.24
5 14 0.59 0.25
5 15 0.38 0.24
5 16 0.56 0.14
5 17 0.7 0.34
5 18 0.68 0.22
5 19 0.64 0.28
5 20 0.44 0.28
5 21 0.69 0.34
5 22 0.56 0.27
5 23 0.7 0.3
5 24 0.46 0.24
5 25 0.36 0.24
5 26 0.73 0.23
5 27 0.21 0.18
5 28 0.5 0.2
5 29 0.67 0.28
5 30 0.46 0.24
5 31 0.57 0.24
5 32 0.74 0.26
5 33 0.6 0.27
5 34 0.63 0.27
5 35 0.56 0.34
5 36 0.38 0.27
5 37 0.7 0.31
5 38 0.41 0.23
5 39 0.34 0.28
6 7 0.66 0.2
6 8 0.26 0.2
6 9 0.59 0.31
6 10 0.42 0.3
6 11 0.38 0.14
6 12 0.44 0.22
6 13 0.5 0.18
6 14 0.62 0.18
6 15 0.54 0.18
6 16 0.62 0.08
6 17 0.7 0.2
6 18 0.53 0.16
6 19 0.4 0.27
6 20 0.48 0.27
6 21 0.65 0.33
6 22 0.28 0.2
6 23 0.58 0.29
6 24 0.44 0.28
6 25 0.58 0.23
6 26 0.74 0.2
6 27 0.62 0.17
6 28 0.77 0.26
6 29 0.69 0.22
6 30 0.52 0.3
6 31 0.54 0.2
6 32 0.56 0.34
6 33 0.6 0.21
6 34 0.5 0.26
6 35 0.34 0.2
6 36 0.52 0.17
6 37 0.41 0.25
6 38 0.54 0.22
6 39 0.61 0.27
7 8 0.56 0.12
7 9 0.55 0.24
7 10 0.6 0.23
7 11 0.74 0.15
7 12 0.6 0.23
7 13 0.5 0.02
7 14 0.5 0.11
7 15 0.42 0.22
7 16 0.48 0.12
7 17 0.6 0.16
7 18 0.67 0.17
7 19 0.38 0.09
7 20 0.7 0.21
7 21 0.22 0.14
7 22 0.71 0.18
7 23 0.45 0.15
7 24 0.5 0.1
7 25 0.37 0.05
7 26 0.68 0.09
7 27 0.52 0.11
7 28 0.39 0.15
7 29 0.52 0.06
7 30 0.66 0.19
7 31 0.56 0.21
7 32 0.81 0.2
7 33 0.61 0.05
7 34 0.68 0.2
7 35 0.56 0.12
7 36 0.74 0.21
7 37 0.52 0.19
7 38 0.57 0.16
7 39 0.65 0.18
8 9 0.72 0.28
8 10 0.56 0.35
8 11 0.64 0.23
8 12 0.34 0.15
8 13 0.54 0.14
8 14 0.64 0.23
8 15 0.53 0.22
8 16 0.76 0.12
8 17 0.6 0.18
8 18 0.52 0.2
8 19 0.39 0.21
8 20 0.71 0.33
8 21 0.39 0.26
8 22 0.54 0.28
8 23 0.83 0.27
8 24 0.54 0.22
8 25 0.52 0.17
8 26 0.68 0.21
8 27 0.48 0.23
8 28 0.78 0.27
8 29 0.62 0.18
8 30 0.66 0.31
8 31 0.5 0.17
8 32 0.58 0.32
8 33 0.65 0.17
8 34 0.76 0.18
8 35 0.6 0.18
8 36 0.64 0.15
8 37 0.44 0.29
8 38 0.68 0.22
8 39 0.35 0.3
9 10 0.74 0.38
9 11 0.38 0.22
9 12 0.73 0.3
9 13 0.57 0.22
9 14 0.52 0.18
9 15 0.69 0.33
9 16 0.77 0.3
9 17 0.6 0.24
9 18 0.67 0.24
9 19 0.56 0.28
9 20 0.56 0.16
9 21 0.48 0.27
9 22 0.53 0.2
9 23 0.48 0.31
9 24 0.6 0.29
9 25 0.52 0.24
9 26 0.46 0.2
9 27 0.59 0.19
9 28 0.62 0.2
9 29 0.68 0.26
9 30 0.54 0.32
9 31 0.57 0.28
9 32 0.44 0.34
9 33 0.65 0.25
9 34 0.32 0.1
9 35 0.74 0.12
9 36 0.6 0.21
9 37 0.5 0.14
9 38 0.45 0.14
9 39 0.7 0.29
10 11 0.6 0.16
10 12 0.3 0.24
10 13 0.5 0.25
10 14 0.38 0.2
10 15 0.6 0.36
10 16 0.56 0.26
10 17 0.64 0.32
10 18 0.46 0.3
10 19 0.65 0.24
10 20 0.48 0.25
10 21 0.64 0.36
10 22 0.7 0.3
10 23 0.82 0.34
10 24 0.38 0.25
10 25 0.46 0.2
10 26 0.58 0.22
10 27 0.46 0.26
10 28 0.68 0.28
10 29 0.66 0.29
10 30 0.37 0.21
10 31 0.52 0.22
10 32 0.72 0.3
10 33 0.67 0.28
10 34 0.6 0.28
10 35 0.62 0.33
10 36 0.74 0.32
10 37 0.34 0.26
10 38 0.52 0.24
10 39 0.5 0.26
11 12 0.36 0.08
11 13 0.76 0.16
11 14 0.64 0.04
11 15 0.82 0.3
11 16 0.66 0.2
11 17 0.7 0.22
11 18 0.69 0.14
11 19 0.38 0.14
11 20 0.62 0.26
11 21 0.56 0.2
11 22 0.66 0.26
11 23 0.43 0.18
11 24 0.45 0.15
11 25 0.77 0.1
11 26 0.48 0.06
11 27 0.66 0.16
11 28 0.64 0.28
11 29 0.62 0.2
11 30 0.66 0.18
11 31 0.46 0.06
11 32 0.52 0.28
11 33 0.68 0.19
11 34 0.48 0.25
11 35 0.6 0.23
11 36 0.42 0.16
11 37 0.69 0.16
11 38 0.46 0.21
11 39 0.54 0.23
12 13 0.4 0.21
12 14 0.52 0.12
12 15 0.53 0.32
12 16 0.66 0.27
12 17 0.66 0.21
12 18 0.66 0.22
12 19 0.7 0.22
12 20 0.7 0.32
12 21 0.38 0.28
12 22 0.6 0.24
12 23 0.52 0.26
12 24 0.48 0.23
12 25 0.41 0.18
12 26 0.45 0.14
12 27 0.56 0.23
12 28 0.54 0.3
12 29 0.66 0.25
12 30 0.58 0.26
12 31 0.56 0.02
12 32 0.42 0.2
12 33 0.48 0.18
12 34 0.74 0.22
12 35 0.71 0.21
12 36 0.62 0.12
12 37 0.52 0.2
12 38 0.52 0.18
12 39 0.69 0.31
13 14 0.12 0.12
13 15 0.46 0.2
13 16 0.46 0.1
13 17 0.74 0.17
13 18 0.53 0.18
13 19 0.46 0.11
13 20 0.49 0.22
13 21 0.4 0.16
13 22 0.22 0.16
13 23 0.61 0.13
13 24 0.64 0.12
13 25 0.41 0.07
13 26 0.32 0.11
13 27 0.26 0.12
13 28 0.39 0.13
13 29 0.64 0.04
13 30 0.58 0.2
13 31 0.42 0.19
13 32 0.5 0.18
13 33 0.38 0.03
13 34 0.68 0.21
13 35 0.64 0.1
13 36 0.66 0.19
13 37 0.58 0.21
13 38 0.46 0.17
13 39 0.39 0.2
14 15 0.58 0.28
14 16 0.58 0.18
14 17 0.62 0.18
14 18 0.41 0.1
14 19 0.34 0.1
14 20 0.54 0.22
14 21 0.28 0.16
14 22 0.34 0.22
14 23 0.49 0.17
14 24 0.72 0.11
14 25 0.41 0.06
14 26 0.2 0.02
14 27 0.38 0.12
14 28 0.51 0.24
14 29 0.52 0.16
14 30 0.46 0.14
14 31 0.46 0.1
14 32 0.62 0.25
14 33 0.5 0.15
14 34 0.67 0.21
14 35 0.72 0.19
14 36 0.54 0.2
14 37 0.53 0.12
14 38 0.45 0.17
14 39 0.51 0.19
15 16 0.24 0.1
15 17 0.61 0.37
15 18 0.45 0.18
15 19 0.54 0.26
15 20 0.53 0.3
15 21 0.64 0.36
15 22 0.37 0.26
15 23 0.42 0.2
15 24 0.72 0.32
15 25 0.51 0.27
15 26 0.46 0.26
15 27 0.36 0.22
15 28 0.56 0.32
15 29 0.55 0.24
15 30 0.28 0.17
15 31 0.46 0.34
15 32 0.57 0.22
15 33 0.44 0.23
15 34 0.75 0.3
15 35 0.57 0.3
15 36 0.52 0.32
15 37 0.62 0.27
15 38 0.53 0.27
15 39 0.49 0.32
16 17 0.69 0.27
16 18 0.43 0.08
16 19 0.65 0.21
16 20 0.63 0.29
16 21 0.66 0.26
16 22 0.61 0.26
16 23 0.61 0.23
16 24 0.54 0.22
16 25 0.33 0.17
16 26 0.64 0.16
16 27 0.48 0.19
16 28 0.69 0.22
16 29 0.79 0.14
16 30 0.52 0.26
16 31 0.48 0.26
16 32 0.33 0.28
16 33 0.63 0.13
16 34 0.64 0.2
16 35 0.6 0.2
16 36 0.46 0.22
16 37 0.38 0.17
16 38 0.57 0.24
16 39 0.49 0.29
17 18 0.52 0.24
17 19 0.66 0.16
17 20 0.7 0.28
17 21 0.58 0.3
17 22 0.64 0.26
17 23 0.64 0.29
17 24 0.46 0.17
17 25 0.36 0.12
17 26 0.67 0.16
17 27 0.51 0.18
17 28 0.36 0.3
17 29 0.56 0.21
17 30 0.6 0.26
17 31 0.56 0.19
17 32 0.49 0.31
17 33 0.47 0.14
17 34 0.81 0.27
17 35 0.72 0.12
17 36 0.83 0.09
17 37 0.42 0.16
17 38 0.71 0.23
17 39 0.64 0.25
18 19 0.4 0.16
18 20 0.7 0.21
18 21 0.68 0.26
18 22 0.72 0.22
18 23 0.36 0.23
18 24 0.48 0.17
18 25 0.58 0.12
18 26 0.21 0.08
18 27 0.64 0.11
18 28 0.54 0.3
18 29 0.53 0.22
18 30 0.44 0.24
18 31 0.64 0.2
18 32 0.76 0.31
18 33 0.28 0.18
18 34 0.65 0.2
18 35 0.54 0.15
18 36 0.68 0.24
18 37 0.42 0.18
18 38 0.48 0.16
18 39 0.51 0.21
19 20 0.48 0.2
19 21 0.4 0.23
19 22 0.57 0.2
19 23 0.62 0.22
19 24 0.76 0.09
19 25 0.6 0.04
19 26 0.54 0.08
19 27 0.48 0.1
19 28 0.57 0.24
19 29 0.64 0.15
19 30 0.28 0.1
19 31 0.78 0.2
19 32 0.57 0.23
19 33 0.3 0.14
19 34 0.62 0.19
19 35 0.65 0.17
19 36 0.47 0.24
19 37 0.54 0.14
19 38 0.58 0.15
19 39 0.54 0.17
20 21 0.71 0.26
20 22 0.32 0.11
20 23 0.58 0.22
20 24 0.7 0.21
20 25 0.34 0.16
20 26 0.66 0.2
20 27 0.23 0.1
20 28 0.44 0.12
20 29 0.34 0.26
20 30 0.52 0.26
20 31 0.68 0.32
20 32 0.6 0.22
20 33 0.64 0.25
20 34 0.58 0.19
20 35 0.61 0.28
20 36 0.78 0.24
20 37 0.66 0.27
20 38 0.43 0.15
20 39 0.36 0.2
21 22 0.62 0.2
21 23 0.52 0.26
21 24 0.44 0.24
21 25 0.59 0.19
21 26 0.48 0.18
21 27 0.48 0.16
21 28 0.61 0.18
21 29 0.74 0.2
21 30 0.68 0.3
21 31 0.74 0.26
21 32 0.76 0.34
21 33 0.55 0.19
21 34 0.52 0.25
21 35 0.65 0.26
21 36 0.82 0.28
21 37 0.74 0.27
21 38 0.67 0.21
21 39 0.61 0.18
22 23 0.58 0.23
22 24 0.62 0.21
22 25 0.58 0.16
22 26 0.54 0.2
22 27 0.48 0.11
22 28 0.54 0.23
22 29 0.66 0.2
22 30 0.64 0.26
22 31 0.64 0.26
22 32 0.28 0.14
22 33 0.6 0.19
22 34 0.6 0.1
22 35 0.62 0.26
22 36 0.68 0.23
22 37 0.36 0.24
22 38 0.51 0.06
22 39 0.61 0.21
23 24 0.84 0.2
23 25 0.66 0.18
23 26 0.57 0.19
23 27 0.63 0.12
23 28 0.52 0.16
23 29 0.48 0.09
23 30 0.7 0.31
23 31 0.44 0.24
23 32 0.58 0.3
23 33 0.64 0.16
23 34 0.52 0.21
23 35 0.7 0.23
23 36 0.68 0.26
23 37 0.56 0.28
23 38 0.7 0.17
23 39 0.5 0.12
24 25 0.56 0.05
24 26 0.63 0.09
24 27 0.54 0.11
24 28 0.44 0.25
24 29 0.46 0.16
24 30 0.48 0.19
24 31 0.52 0.21
24 32 0.76 0.14
24 33 0.69 0.15
24 34 0.82 0.2
24 35 0.42 0.18
24 36 0.6 0.25
24 37 0.63 0.19
24 38 0.62 0.16
24 39 0.67 0.08
25 26 0.41 0.04
25 27 0.15 0.06
25 28 0.36 0.2
25 29 0.61 0.11
25 30 0.53 0.14
25 31 0.44 0.16
25 32 0.66 0.19
25 33 0.3 0.1
25 34 0.57 0.15
25 35 0.36 0.13
25 36 0.54 0.2
25 37 0.53 0.14
25 38 0.35 0.11
25 39 0.28 0.13
26 27 0.52 0.1
26 28 0.71 0.24
26 29 0.32 0.15
26 30 0.59 0.16
26 31 0.66 0.12
26 32 0.68 0.23
26 33 0.49 0.14
26 34 0.68 0.19
26 35 0.56 0.17
26 36 0.7 0.22
26 37 0.5 0.1
26 38 0.65 0.15
26 39 0.65 0.17
27 28 0.51 0.22
27 29 0.46 0.16
27 30 0.64 0.2
27 31 0.59 0.22
27 32 0.56 0.25
27 33 0.45 0.15
27 34 0.42 0.09
27 35 0.38 0.19
27 36 0.55 0.14
27 37 0.53 0.2
27 38 0.2 0.05
27 39 0.13 0.1
28 29 0.45 0.17
28 30 0.84 0.17
28 31 0.44 0.28
28 32 0.8 0.31
28 33 0.51 0.16
28 34 0.64 0.3
28 35 0.43 0.23
28 36 0.6 0.3
28 37 0.7 0.15
28 38 0.71 0.27
28 39 0.64 0.28
29 30 0.5 0.24
29 31 0.42 0.23
29 32 0.46 0.22
29 33 0.62 0.07
29 34 0.36 0.25
29 35 0.78 0.14
29 36 0.62 0.23
29 37 0.45 0.25
29 38 0.58 0.21
29 39 0.58 0.21
30 31 0.74 0.24
30 32 0.58 0.33
30 33 0.44 0.23
30 34 0.54 0.28
30 35 0.65 0.27
30 36 0.68 0.34
30 37 0.71 0.24
30 38 0.6 0.24
30 39 0.7 0.27
31 32 0.58 0.22
31 33 0.48 0.16
31 34 0.72 0.24
31 35 0.65 0.19
31 36 0.58 0.1
31 37 0.86 0.22
31 38 0.64 0.2
31 39 0.51 0.29
32 33 0.87 0.21
32 34 0.58 0.24
32 35 0.9 0.28
32 36 0.79 0.32
32 37 0.5 0.33
32 38 0.36 0.2
32 39 0.54 0.22
33 34 0.56 0.24
33 35 0.51 0.13
33 36 0.69 0.22
33 37 0.68 0.24
33 38 0.65 0.2
33 39 0.58 0.23
34 35 0.42 0.22
34 36 0.6 0.23
34 37 0.48 0.24
34 38 0.22 0.04
34 39 0.55 0.19
35 36 0.18 0.09
35 37 0.62 0.26
35 38 0.58 0.24
35 39 0.51 0.26
36 37 0.64 0.25
36 38 0.64 0.19
36 39 0.42 0.24
37 38 0.38 0.2
37 39 0.6 0.27
38 39 0.33 0.15
